9093
7005
6445
1409
8094
3890
4068
2426
3541
8708
969
9972
7011
2685
2716
1796
4561
2535
5091
3587
799
6727
5153
6350
9166
7836
8383
6977
4582
5117
7628
2455
1506
497
6179
547
9641
7136
985
1268
10045
9607
7793
4375
3369
3712
2981
8004
1523
6276
7764
